\Generated by Cardinal Operations

Minimize
   2 x_1_1 + 3 x_1_2 + 4 x_1_3 + 3 x_2_1 + 2 x_2_2 + x_2_3 + x_3_1 
   + 4 x_3_2 + 3 x_3_3 + 4 x_4_1 + 5 x_4_2 + 2 x_4_3 
Subject To
 supply_1: - x_1_1 - x_1_2 - x_1_3 >= -10
 supply_2: - x_2_1 - x_2_2 - x_2_3 >= -30
 supply_3: - x_3_1 - x_3_2 - x_3_3 >= -40
 supply_4: - x_4_1 - x_4_2 - x_4_3 >= -20
 demand_1: x_1_1 + x_2_1 + x_3_1 + x_4_1 >= 20
 demand_2: x_1_2 + x_2_2 + x_3_2 + x_4_2 >= 50
 demand_3: x_1_3 + x_2_3 + x_3_3 + x_4_3 >= 30
 link_1_1: - x_1_1 >= 0
 link_1_2: - x_1_2 >= 0
 link_1_3: - x_1_3 >= 0
 link_2_1: - x_2_1 >= 0
 link_2_2: - x_2_2 >= 0
 link_2_3: - x_2_3 >= 0
 link_3_1: - x_3_1 >= 0
 link_3_2: - x_3_2 >= 0
 link_3_3: - x_3_3 >= 0
 link_4_1: - x_4_1 >= 0
 link_4_2: - x_4_2 >= 0
 link_4_3: - x_4_3 >= 0
END

